510,461
652,410
709,397
751,-38
559,166
415,213
463,564
602,909
681,826
533,383
652,410
668,432
709,583
972,617
894,514
981,406
1101,406
981,406
1101,406
744,469
660,427
718,520
668,432
545,139
533,-50
597,-127
718,292
753,354
1162,651
975,555
753,354
652,410
533,383
523,188
399,18
532,112
545,139
463,564
